c DCNF-Autarky [version 0.0.1]. 
c Copyright (c) 2018-2019 Swansea University. 
c 
c Input QBF/DQBF path: MinBiere18//texas.ifetch1^9.E-d3.qdimacs
c Output SAT Translation Path: /tmp/texas.ifetch1^9.E-d3.qdimacs-dcnfAutarky.dimacs
c Input Clause Count (tautology free): 508
c
c Performing E1-Autarky iteration.
c Remaining clauses count after E-Reduction: 508
c
c Performing A1-Autarky iteration.
c Running Lingeling ... 
c
c Remaining clauses count after A-Reduction: 474
c
c Performing E1-Autarky iteration.
c Remaining clauses count after E-Reduction: 474
c
c Performing A1-Autarky iteration.
c Running Lingeling ... 
c
c Remaining clauses count after A-Reduction: 474
c
c Input Parameter (command line, file): 
c input filename   MinBiere18//texas.ifetch1^9.E-d3.qdimacs
c output filename  /tmp/texas.ifetch1^9.E-d3.qdimacs-dcnfAutarky.dimacs
c autarky level    1
c conformity level 0
c encoding type    2
c no.of var        206
c no.of clauses    508
c no.of taut cls   0
c 
c Output Parameters: 
c remaining no.of clauses  474
c
c filename pn pc autarky ntaut rpa rpe rpcdiff result
c "MinBiere18//texas.ifetch1^9.E-d3.qdimacs" 206 508 "E1+A1" 0 6 185 34 "RED" 
p cnf 206 474
e 1 2 3 6 7 19 20 23 24 25 26 43 44 47 48 51 52 55 59 64 71 94 104 113 114 116 123 124 125 126 169 0
a 117 140 141 142 143 168 0
e 4 5 8 9 10 11 12 13 14 15 16 17 18 21 22 27 28 29 30 31 32 33 34 35 36 37 38 39 40 41 42 45 46 49 50 53 54 56 57 58 60 61 62 63 65 66 67 68 69 70 72 73 74 75 76 77 78 79 80 81 82 83 84 85 86 87 88 89 90 91 92 93 95 96 97 98 99 100 101 102 103 105 106 107 108 109 110 111 112 115 118 119 120 121 122 127 128 129 130 131 132 133 134 135 136 137 138 139 144 145 146 147 148 149 150 151 152 153 154 155 156 157 158 159 160 161 162 163 164 165 166 167 170 171 172 173 174 175 176 177 178 179 180 181 182 183 184 185 186 187 188 189 190 191 192 193 194 195 196 197 198 199 200 201 202 203 204 205 206 0
-4 2 0
-4 -3 0
4 -2 3 0
-5 2 0
-5 -4 0
5 -2 4 0
-8 6 0
-8 7 0
8 -6 -7 0
-9 6 0
-9 -8 0
9 -6 8 0
-10 -3 0
-10 9 0
10 3 -9 0
-11 9 0
-11 -10 0
11 -9 10 0
-12 -2 0
-12 -11 0
12 2 11 0
-13 -2 0
-13 -12 0
13 2 12 0
-14 -5 0
-14 -13 0
14 5 13 0
-15 1 0
-15 -14 0
15 -1 14 0
-16 -14 0
-16 -15 0
16 14 15 0
-17 -1 0
-17 -16 0
17 1 16 0
-18 -1 0
-18 -17 0
18 1 17 0
-21 19 0
-21 -20 0
21 -19 20 0
-22 19 0
-22 -21 0
22 -19 21 0
-34 3 0
-34 1 0
34 -3 -1 0
-35 3 0
-35 -34 0
35 -3 34 0
-36 -1 0
-36 -35 0
36 1 35 0
-37 -1 0
-37 -36 0
37 1 36 0
-38 1 0
-38 6 0
38 -1 -6 0
-39 6 0
-39 -38 0
39 -6 38 0
-40 -1 0
-40 -39 0
40 1 39 0
-41 -1 0
-41 -40 0
41 1 40 0
-42 22 0
-42 -1 0
42 -22 1 0
-45 -43 0
-45 44 0
45 43 -44 0
-46 -43 0
-46 -45 0
46 43 45 0
-49 -48 0
-49 47 0
49 48 -47 0
-50 47 0
-50 -49 0
50 -47 49 0
-53 51 0
-53 -52 0
53 -51 52 0
-54 51 0
-54 -53 0
54 -51 53 0
-56 52 0
-56 55 0
56 -52 -55 0
-57 55 0
-57 -56 0
57 -55 56 0
-58 -54 0
-58 -57 0
58 54 57 0
-60 -52 0
-60 -48 0
60 52 48 0
-61 60 0
-61 59 0
61 -60 -59 0
-62 59 0
-62 -61 0
62 -59 61 0
-63 58 0
-63 -62 0
63 -58 62 0
-65 52 0
-65 64 0
65 -52 -64 0
-66 64 0
-66 -65 0
66 -64 65 0
-67 48 0
-67 66 0
67 -48 -66 0
-68 66 0
-68 -67 0
68 -66 67 0
-69 63 0
-69 -68 0
69 -63 68 0
-70 -50 0
-70 69 0
70 50 -69 0
-72 -52 0
-72 48 0
72 52 -48 0
-73 71 0
-73 72 0
73 -71 -72 0
-74 71 0
-74 -73 0
74 -71 73 0
-75 70 0
-75 -74 0
75 -70 74 0
-76 -75 0
-76 46 0
76 75 -46 0
-77 46 0
-77 -76 0
77 -46 76 0
-78 -42 0
-78 77 0
78 42 -77 0
-79 77 0
-79 -78 0
79 -77 78 0
-80 42 0
-80 -79 0
80 -42 79 0
-81 42 0
-81 -80 0
81 -42 80 0
-82 2 0
-82 3 0
82 -2 -3 0
-83 2 0
-83 -82 0
83 -2 82 0
-84 7 0
-84 -8 0
84 -7 8 0
-85 -3 0
-85 84 0
85 3 -84 0
-86 84 0
-86 -85 0
86 -84 85 0
-87 -2 0
-87 -86 0
87 2 86 0
-88 -2 0
-88 -87 0
88 2 87 0
-89 -83 0
-89 -88 0
89 83 88 0
-90 1 0
-90 -89 0
90 -1 89 0
-91 -89 0
-91 -90 0
91 89 90 0
-92 -1 0
-92 -91 0
92 1 91 0
-93 -1 0
-93 -92 0
93 1 92 0
-95 1 0
-95 7 0
95 -1 -7 0
-96 7 0
-96 -95 0
96 -7 95 0
-97 -1 0
-97 -96 0
97 1 96 0
-98 -1 0
-98 -97 0
98 1 97 0
-99 -98 0
-99 -41 0
99 98 41 0
-100 -81 0
-100 -37 0
100 81 37 0
-101 -37 0
-101 -100 0
101 37 100 0
-102 -22 0
-102 101 0
102 22 -101 0
-103 101 0
-103 -102 0
103 -101 102 0
-105 104 0
-105 -42 0
105 -104 42 0
-106 104 0
-106 -105 0
106 -104 105 0
-107 42 0
-107 -106 0
107 -42 106 0
-108 42 0
-108 -107 0
108 -42 107 0
-109 108 0
-109 103 0
109 -108 -103 0
-110 103 0
-110 -109 0
110 -103 109 0
-111 -110 0
-111 -99 0
111 110 99 0
-112 -99 0
-112 -111 0
112 99 111 0
-115 -114 0
-115 -110 0
115 114 110 0
-118 116 0
-118 -117 0
118 -116 117 0
-119 -116 0
-119 117 0
119 116 -117 0
-120 -118 0
-120 -119 0
120 118 119 0
-121 115 0
-121 120 0
121 -115 -120 0
-122 -112 0
-122 121 0
122 112 -121 0
-127 125 0
-127 -126 0
127 -125 126 0
-128 125 0
-128 -127 0
128 -125 127 0
-129 -128 0
-129 114 0
129 128 -114 0
-130 -128 0
-130 -129 0
130 128 129 0
-131 113 0
-131 130 0
131 -113 -130 0
-132 130 0
-132 -131 0
132 -130 131 0
-133 108 0
-133 132 0
133 -108 -132 0
-134 132 0
-134 -133 0
134 -132 133 0
-135 -124 0
-135 -134 0
135 124 134 0
-136 -124 0
-136 -135 0
136 124 135 0
-137 -123 0
-137 -136 0
137 123 136 0
-138 94 0
-138 -137 0
138 -94 137 0
-139 -137 0
-139 -138 0
139 137 138 0
-144 142 0
-144 -143 0
144 -142 143 0
-145 142 0
-145 -144 0
145 -142 144 0
-146 -141 0
-146 145 0
146 141 -145 0
-147 -141 0
-147 -146 0
147 141 146 0
-148 -140 0
-148 -147 0
148 140 147 0
-149 139 0
-149 148 0
149 -139 -148 0
-150 -139 0
-150 -148 0
150 139 148 0
-151 -149 0
-151 -150 0
151 149 150 0
-152 122 0
-152 151 0
152 -122 -151 0
-153 124 0
-153 134 0
153 -124 -134 0
-154 -123 0
-154 153 0
154 123 -153 0
-155 -94 0
-155 154 0
155 94 -154 0
-156 141 0
-156 -145 0
156 -141 145 0
-157 -140 0
-157 156 0
157 140 -156 0
-158 -155 0
-158 157 0
158 155 -157 0
-159 155 0
-159 -157 0
159 -155 157 0
-160 -158 0
-160 -159 0
160 158 159 0
-161 152 0
-161 160 0
161 -152 -160 0
-162 -114 0
-162 161 0
162 114 -161 0
-163 -98 0
-163 162 0
163 98 -162 0
-164 -113 0
-164 163 0
164 113 -163 0
-165 -108 0
-165 164 0
165 108 -164 0
-166 -112 0
-166 165 0
166 112 -165 0
-167 -41 0
-167 166 0
167 41 -166 0
-170 -113 0
-170 -169 0
170 113 169 0
-171 108 0
-171 -170 0
171 -108 170 0
-172 -170 0
-172 -171 0
172 170 171 0
-173 94 0
-173 172 0
173 -94 -172 0
-174 172 0
-174 -173 0
174 -172 173 0
-175 -168 0
-175 174 0
175 168 -174 0
-176 168 0
-176 -174 0
176 -168 174 0
-177 -175 0
-177 -176 0
177 175 176 0
-178 167 0
-178 177 0
178 -167 -177 0
-179 124 0
-179 -141 0
179 -124 141 0
-180 -124 0
-180 141 0
180 124 -141 0
-181 -179 0
-181 -180 0
181 179 180 0
-182 178 0
-182 181 0
182 -178 -181 0
-183 -98 0
-183 182 0
183 98 -182 0
-184 -94 0
-184 183 0
184 94 -183 0
-185 -93 0
-185 184 0
185 93 -184 0
-186 22 0
-186 185 0
186 -22 -185 0
-187 -81 0
-187 186 0
187 81 -186 0
-188 -41 0
-188 187 0
188 41 -187 0
-189 -37 0
-189 188 0
189 37 -188 0
-190 22 0
-190 -134 0
190 -22 134 0
-191 94 0
-191 -190 0
191 -94 190 0
-192 -190 0
-192 -191 0
192 190 191 0
-193 145 0
-193 192 0
193 -145 -192 0
-194 -145 0
-194 -192 0
194 145 192 0
-195 -193 0
-195 -194 0
195 193 194 0
-196 189 0
-196 195 0
196 -189 -195 0
-197 -94 0
-197 -134 0
197 94 134 0
-198 -94 0
-198 -197 0
198 94 197 0
-199 145 0
-199 198 0
199 -145 -198 0
-200 -145 0
-200 -198 0
200 145 198 0
-201 -199 0
-201 -200 0
201 199 200 0
-202 196 0
-202 201 0
202 -196 -201 0
